Instance name: /home/cuong/CLionProjects/uMV-FSTSP/50_dis_rand_ins/v60
Write arg val: 1

drone speed: 1 miles/minute
uav non-eligible customer: 11 
Printing tau:
0 13.308 29.7183 33.2882 14.2018 42.2117 28.9521 61.9996 49.9081 68.8335 83.6494 0 
13.308 0 43.0263 46.5961 27.5098 55.5196 42.2601 59.4369 53.5212 82.1415 96.9574 13.308 
29.7183 43.0263 0 6.92221 30.3724 32.2233 11.5898 87.7525 75.6611 47.176 53.9311 29.7183 
33.2882 46.5961 6.92221 0 37.2946 39.1455 18.512 94.6747 82.5833 54.0982 50.3612 33.2882 
14.2018 27.5098 30.3724 37.2946 0 28.0098 18.7826 57.3802 45.2887 54.6317 69.4476 14.2018 
42.2117 55.5196 32.2233 39.1455 28.0098 0 20.6335 55.5292 43.4378 26.6219 41.4378 42.2117 
28.9521 42.2601 11.5898 18.512 18.7826 20.6335 0 76.1628 64.0713 39.8814 54.6973 28.9521 
61.9996 59.4369 87.7525 94.6747 57.3802 55.5292 76.1628 0 12.0915 40.5766 65.8233 61.9996 
49.9081 53.5212 75.6611 82.5833 45.2887 43.4378 64.0713 12.0915 0 28.6203 53.7318 49.9081 
68.8335 82.1415 47.176 54.0982 54.6317 26.6219 39.8814 40.5766 28.6203 0 25.2467 68.8335 
83.6494 96.9574 53.9311 50.3612 69.4476 41.4378 54.6973 65.8233 53.7318 25.2467 0 83.6494 
0 0 0 0 0 0 0 0 0 0 0 0 
Printing tau_prime:
0 1.91661 5.56128 6.59662 2.11202 6.03935 4.55812 9.65228 9.06413 10.1951 11.8422 0 
1.91661 0 7.28428 8.26185 3.90133 7.87108 6.42755 10.2799 10.1056 11.9188 13.7416 1.91661 
5.56128 7.28428 0 1.10146 4.82337 4.88758 1.64262 12.4112 10.8025 8.66668 8.23341 5.56128 
6.59662 8.26185 1.10146 0 5.92482 5.67803 2.68885 13.4059 11.72 9.15433 8.20812 6.59662 
2.11202 3.90133 4.82337 5.92482 0 3.96983 3.37745 8.3642 7.38601 8.0833 9.89369 2.11202 
6.03935 7.87108 4.88758 5.67803 3.96983 0 3.46859 8.08763 6.14953 4.31812 6.0383 6.03935 
4.55812 6.42755 1.64262 2.68885 3.37745 3.46859 0 10.7712 9.19994 7.55897 7.87235 4.55812 
9.65228 10.2799 12.4112 13.4059 8.3642 8.08763 10.7712 0 2.37711 8.08733 12.1409 9.65228 
9.06413 10.1056 10.8025 11.72 7.38601 6.14953 9.19994 2.37711 0 5.71056 9.77119 9.06413 
10.1951 11.9188 8.66668 9.15433 8.0833 4.31812 7.55897 8.08733 5.71056 0 4.13983 10.1951 
11.8422 13.7416 8.23341 8.20812 9.89369 6.0383 7.87235 12.1409 9.77119 4.13983 0 11.8422 
0 0 0 0 0 0 0 0 0 0 0 0 
Version identifier: 22.1.1.0 | 2022-11-28 | 9160aff4d
CPXPARAM_MIP_Tolerances_Integrality              0
Tried aggregator 1 time.
MIP Presolve eliminated 1 rows and 12 columns.
MIP Presolve modified 20 coefficients.
Reduced MIP has 122 rows, 120 columns, and 510 nonzeros.
Reduced MIP has 110 binaries, 0 generals, 0 SOSs, and 0 indicators.
Presolve time = 0.00 sec. (0.27 ticks)
Found incumbent of value 513.932900 after 0.00 sec. (0.75 ticks)
Probing time = 0.00 sec. (0.26 ticks)
Cover probing fixed 0 vars, tightened 10 bounds.
Tried aggregator 1 time.
Detecting symmetries...
MIP Presolve eliminated 10 rows and 0 columns.
MIP Presolve modified 180 coefficients.
Reduced MIP has 112 rows, 120 columns, and 490 nonzeros.
Reduced MIP has 110 binaries, 0 generals, 0 SOSs, and 0 indicators.
Presolve time = 0.00 sec. (0.35 ticks)
Probing time = 0.00 sec. (0.26 ticks)
Clique table members: 67.
MIP emphasis: balance optimality and feasibility.
MIP search method: dynamic search.
Parallel mode: deterministic, using up to 20 threads.
Root relaxation solution time = 0.00 sec. (0.19 ticks)

        Nodes                                         Cuts/
   Node  Left     Objective  IInf  Best Integer    Best Bound    ItCnt     Gap

*     0+    0                          513.9329        0.0000           100.00%
      0     0      196.3114    20      513.9329      196.3114       21   61.80%
*     0+    0                          378.2795      196.3114            48.10%
      0     0      253.0701    20      378.2795      Cuts: 26       40   33.10%
*     0+    0                          310.4608      253.0701            18.49%
      0     0      254.8340    16      310.4608      Cuts: 27       56   17.92%
      0     0      254.8340    16      310.4608       Cuts: 7       62   17.92%
*     0+    0                          302.5299      254.8340            15.77%
      0     0      254.8340    16      302.5299      Cuts: 14       65   15.77%
*     0+    0                          292.0378      254.8340            12.74%
*     0+    0                          270.4217      254.8340             5.76%
      0     0        cutoff            270.4217      270.4217       65    0.00%
Elapsed time = 0.15 sec. (8.57 ticks, tree = 0.01 MB, solutions = 6)

Clique cuts applied:  3
Implied bound cuts applied:  2
Mixed integer rounding cuts applied:  14
Zero-half cuts applied:  1
Multi commodity flow cuts applied:  2
Gomory fractional cuts applied:  4

Root node processing (before b&c):
  Real time             =    0.15 sec. (8.59 ticks)
Parallel b&c, 20 threads:
  Real time             =    0.00 sec. (0.00 ticks)
  Sync time (average)   =    0.00 sec.
  Wait time (average)   =    0.00 sec.
                          ------------
Total (root+branch&cut) =    0.15 sec. (8.59 ticks)

TSP solution for this instance: 0 4 5 6 2 3 10 9 8 7 1 11 
12
Warmstart X[1][0] == 1
Warmstart X[2][4] == 1
Warmstart X[3][5] == 1
Warmstart X[4][6] == 1
Warmstart X[5][2] == 1
Warmstart X[6][3] == 1
Warmstart X[7][10] == 1
Warmstart X[8][9] == 1
Warmstart X[9][8] == 1
Warmstart X[10][7] == 1
Warmstart X[11][1] == 1
---------------------------------------------
Calculate max stage gap for sortie.... 
Stage gap of 3 with smallest length = 20.7666 violated endurance constraint!
---------------------------------------------
Variable z[1][4] was set to 0.
Variable z[1][5] was set to 0.
Variable z[1][6] was set to 0.
Variable z[1][7] was set to 0.
Variable z[1][8] was set to 0.
Variable z[1][9] was set to 0.
Variable z[1][10] was set to 0.
Variable z[1][11] was set to 0.
Variable z[1][12] was set to 0.
Variable z[2][5] was set to 0.
Variable z[2][6] was set to 0.
Variable z[2][7] was set to 0.
Variable z[2][8] was set to 0.
Variable z[2][9] was set to 0.
Variable z[2][10] was set to 0.
Variable z[2][11] was set to 0.
Variable z[2][12] was set to 0.
Variable z[3][6] was set to 0.
Variable z[3][7] was set to 0.
Variable z[3][8] was set to 0.
Variable z[3][9] was set to 0.
Variable z[3][10] was set to 0.
Variable z[3][11] was set to 0.
Variable z[3][12] was set to 0.
Variable z[4][7] was set to 0.
Variable z[4][8] was set to 0.
Variable z[4][9] was set to 0.
Variable z[4][10] was set to 0.
Variable z[4][11] was set to 0.
Variable z[4][12] was set to 0.
Variable z[5][8] was set to 0.
Variable z[5][9] was set to 0.
Variable z[5][10] was set to 0.
Variable z[5][11] was set to 0.
Variable z[5][12] was set to 0.
Variable z[6][9] was set to 0.
Variable z[6][10] was set to 0.
Variable z[6][11] was set to 0.
Variable z[6][12] was set to 0.
Variable z[7][10] was set to 0.
Variable z[7][11] was set to 0.
Variable z[7][12] was set to 0.
Variable z[8][11] was set to 0.
Variable z[8][12] was set to 0.
Variable z[9][12] was set to 0.
Num constraint added = 0
Warning:  Output names have been modified due to duplicate names or characters invalid in LP format.
Version identifier: 22.1.1.0 | 2022-11-28 | 9160aff4d
CPXPARAM_TimeLimit                               200
CPXPARAM_MIP_Tolerances_Integrality              0
1 of 1 MIP starts provided solutions.
MIP start 'm1' defined initial solution with objective 270.4217.
Tried aggregator 2 times.
MIP Presolve eliminated 5821 rows and 1453 columns.
MIP Presolve modified 3352 coefficients.
Aggregator did 51 substitutions.
Reduced MIP has 1682 rows, 3272 columns, and 98206 nonzeros.
Reduced MIP has 3251 binaries, 0 generals, 0 SOSs, and 0 indicators.
Presolve time = 0.16 sec. (480.57 ticks)
Probing fixed 8 vars, tightened 0 bounds.
Probing time = 0.03 sec. (40.14 ticks)
Tried aggregator 1 time.
Detecting symmetries...
MIP Presolve eliminated 0 rows and 8 columns.
MIP Presolve modified 39 coefficients.
Reduced MIP has 1682 rows, 3264 columns, and 98105 nonzeros.
Reduced MIP has 3243 binaries, 0 generals, 0 SOSs, and 0 indicators.
Presolve time = 0.05 sec. (105.02 ticks)
Probing time = 0.00 sec. (5.88 ticks)
Clique table members: 13244.
MIP emphasis: balance optimality and feasibility.
MIP search method: dynamic search.
Parallel mode: deterministic, using up to 20 threads.
Root relaxation solution time = 0.19 sec. (423.15 ticks)

        Nodes                                         Cuts/
   Node  Left     Objective  IInf  Best Integer    Best Bound    ItCnt     Gap

*     0+    0                          270.4217       13.3080            95.08%
      0     0       99.2307   236      270.4217       99.2307       43   63.31%
*     0+    0                          125.8213       99.2307            21.13%
      0     0      100.9676   177      125.8213      Cuts: 16     1795   19.65%
*     0+    0                          123.5729      101.1009            18.19%
      0     0      101.9165   203      123.5729      Cuts: 34     3465   17.53%
*     0+    0                          117.8075      101.9165            13.49%
Detecting symmetries...

Repeating presolve.
Tried aggregator 2 times.
MIP Presolve eliminated 315 rows and 1278 columns.
MIP Presolve modified 663 coefficients.
Aggregator did 56 substitutions.
Reduced MIP has 1311 rows, 1930 columns, and 54603 nonzeros.
Reduced MIP has 1909 binaries, 0 generals, 0 SOSs, and 0 indicators.
Presolve time = 0.07 sec. (144.04 ticks)
Probing fixed 562 vars, tightened 0 bounds.
Probing changed sense of 24 constraints.
Probing time = 0.04 sec. (70.62 ticks)
Tried aggregator 2 times.
MIP Presolve eliminated 306 rows and 562 columns.
MIP Presolve modified 577 coefficients.
Aggregator did 1 substitutions.
Reduced MIP has 1004 rows, 1367 columns, and 27796 nonzeros.
Reduced MIP has 1346 binaries, 0 generals, 0 SOSs, and 0 indicators.
Presolve time = 0.03 sec. (56.46 ticks)
Probing fixed 13 vars, tightened 0 bounds.
Probing time = 0.02 sec. (28.26 ticks)
Cover probing fixed 0 vars, tightened 3 bounds.
Tried aggregator 1 time.
Detecting symmetries...
MIP Presolve eliminated 0 rows and 13 columns.
MIP Presolve modified 53 coefficients.
Reduced MIP has 1003 rows, 1354 columns, and 27385 nonzeros.
Reduced MIP has 1333 binaries, 0 generals, 0 SOSs, and 0 indicators.
Presolve time = 0.02 sec. (30.19 ticks)
Represolve time = 0.18 sec. (348.82 ticks)
Probing time = 0.00 sec. (4.57 ticks)
Clique table members: 7236.
MIP emphasis: balance optimality and feasibility.
MIP search method: dynamic search.
Parallel mode: deterministic, using up to 20 threads.
Root relaxation solution time = 0.08 sec. (154.70 ticks)

        Nodes                                         Cuts/
   Node  Left     Objective  IInf  Best Integer    Best Bound    ItCnt     Gap

*     0+    0                          117.8075      101.9165            13.49%
      0     0      102.2812   175      117.8075      102.2812     3493   13.18%
      0     0      103.9543   145      117.8075       Cuts: 7     4400   11.76%
      0     0      104.2735   136      117.8075      Cuts: 34     4508   11.49%
      0     0      104.2761   150      117.8075      Cuts: 25     4571   11.49%
*     0+    0                          117.8075      104.2761            11.49%
      0     0      104.2783   144      117.8075       Cuts: 7     4608    9.34%
      0     0      104.2814   154      117.8075      Cuts: 23     4713    9.34%
Detecting symmetries...
      0     0        cutoff            117.8075      117.8075     4713    0.00%
Elapsed time = 1.75 sec. (3459.89 ticks, tree = 0.01 MB, solutions = 5)

GUB cover cuts applied:  1
Clique cuts applied:  4
Cover cuts applied:  2
Flow cuts applied:  4
Mixed integer rounding cuts applied:  1
Zero-half cuts applied:  3
Gomory fractional cuts applied:  1

Root node processing (before b&c):
  Real time             =    1.75 sec. (3460.25 ticks)
Parallel b&c, 20 threads:
  Real time             =    0.00 sec. (0.00 ticks)
  Sync time (average)   =    0.00 sec.
  Wait time (average)   =    0.00 sec.
                          ------------
Total (root+branch&cut) =    1.75 sec. (3460.25 ticks)
Feasible solution found!
Truck nodes:
Stage 1 at customer 0 with arrival time is: 0
Stage 1 at customer 0 with departure time is: 0
Stage 2 at customer 4 with arrival time is: 14.2018
Stage 2 at customer 4 with departure time is: 16.2018
Stage 3 at customer 6 with arrival time is: 34.9844
Stage 3 at customer 6 with departure time is: 36.9844
Stage 4 at customer 3 with arrival time is: 55.4964
Stage 4 at customer 3 with departure time is: 57.4964
Stage 5 at customer 2 with arrival time is: 64.4186
Stage 5 at customer 2 with departure time is: 64.4186
Stage 6 at customer 6 with arrival time is: 76.0084
Stage 6 at customer 6 with departure time is: 78.0084
Stage 7 at customer 4 with arrival time is: 96.791
Stage 7 at customer 4 with departure time is: 98.791
Stage 8 at customer 11 with arrival time is: 112.993
Stage 8 at customer 11 with departure time is: 117.807
Truck arcs:
Arc 1 connecting 0 and 4 with cost 14.2018 
Arc 2 connecting 4 and 6 with cost 18.7826 
Arc 3 connecting 6 and 3 with cost 18.512 
Arc 4 connecting 3 and 2 with cost 6.92221 
Arc 5 connecting 2 and 6 with cost 11.5898 
Arc 6 connecting 6 and 4 with cost 18.7826 
Arc 7 connecting 4 and 11 with cost 14.2018 
Customer 1 served by drone.
Drone fly from 0 at stage 1 to serve 1 and then fly back to 4 at stage 2. 
Truck arcs during this sortie: 0--->4
Truck travel time from stage 1 to 2 is: 14.2018
Total drone travel time: 5.81794
Drone arrival time: 5.81794
Truck arrival time: 14.2018
Truck departure time = max(d/a, t/a) plus (sl/sr): 16.2018
Customer 5 served by drone.
Drone fly from 3 at stage 4 to serve 5 and then fly back to 6 at stage 6. 
Truck arcs during this sortie: 3--->2--->6
Truck travel time from stage 4 to 6 is: 18.512
Total drone travel time: 9.14662
Drone arrival time: 66.643
Truck arrival time: 76.0084
Truck departure time = max(d/a, t/a) plus (sl/sr): 78.0084
Customer 7 served by drone.
Drone fly from 4 at stage 7 to serve 7 and then fly back to 11 at stage 8. 
Truck arcs during this sortie: 4--->0
Truck travel time from stage 7 to 8 is: 14.2018
Total drone travel time: 18.0165
Drone arrival time: 116.807
Truck arrival time: 112.993
Truck departure time = max(d/a, t/a) plus (sl/sr): 117.807
Customer 8 served by drone.
Drone fly from 6 at stage 6 to serve 8 and then fly back to 4 at stage 7. 
Truck arcs during this sortie: 6--->4
Truck travel time from stage 6 to 7 is: 18.7826
Total drone travel time: 16.586
Drone arrival time: 94.5944
Truck arrival time: 96.791
Truck departure time = max(d/a, t/a) plus (sl/sr): 98.791
Customer 9 served by drone.
Drone fly from 6 at stage 3 to serve 9 and then fly back to 3 at stage 4. 
Truck arcs during this sortie: 6--->3
Truck travel time from stage 3 to 4 is: 18.512
Total drone travel time: 16.7133
Drone arrival time: 53.6977
Truck arrival time: 55.4964
Truck departure time = max(d/a, t/a) plus (sl/sr): 57.4964
Customer 10 served by drone.
Drone fly from 4 at stage 2 to serve 10 and then fly back to 6 at stage 3. 
Truck arcs during this sortie: 4--->6
Truck travel time from stage 2 to 3 is: 18.7826
Total drone travel time: 17.766
Drone arrival time: 33.9678
Truck arrival time: 34.9844
Truck departure time = max(d/a, t/a) plus (sl/sr): 36.9844
Done!
-------------------------Re-calculated objective-----------------------
117.807
------------------------------------------------------------------------
Solve time: 1.757
Node 4 was revisited 1 times!
Node 6 was revisited 1 times!
OBJECTIVE VALUE: 117.807, NUMBER OF SORTIES: 6.
Number of revisit: 2
In write mode
